#######################



#######################
Set parameter TimeLimit to value 300
Set parameter SoftMemLimit to value 125
Set parameter LogFile to value 1202-TimeLimit300-k16x240-6.log
Set parameter Seed to value 6
Using license file /opt/gurobi/gurobi.lic

Gurobi Optimizer version 12.0.2 build v12.0.2rc0 (linux64 - "Ubuntu 22.04.4 LTS")
Copyright (c) 2025, Gurobi Optimization, LLC

Read MPS format model from file /miplib2010/k16x240.mps.bz2
Reading time = 0.00 seconds
k16x240: 256 rows, 480 columns, 960 nonzeros

Using Gurobi shared library /nfs/shared/static-builds/gurobi1202

CPU model: Intel(R) Xeon(R) E-2388G CPU @ 3.20GHz, instruction set [SSE2|AVX|AVX2|AVX512]
Thread count: 8 physical cores, 16 logical processors, using up to 16 threads

Non-default parameters:
TimeLimit  300
SoftMemLimit  125
Seed  6

Optimize a model with 256 rows, 480 columns and 960 nonzeros
Model fingerprint: 0x4e80885f
Variable types: 240 continuous, 240 integer (240 binary)
Coefficient statistics:
  Matrix range     [1e+00, 1e+03]
  Objective range  [1e+00, 1e+03]
  Bounds range     [1e+00, 1e+03]
  RHS range        [4e+00, 4e+02]
Found heuristic solution: objective 19315.000000
Presolve time: 0.00s
Presolved: 256 rows, 480 columns, 960 nonzeros
Variable types: 240 continuous, 240 integer (240 binary)

Root relaxation: objective 2.769838e+03, 51 iterations, 0.00 seconds (0.00 work units)

    Nodes    |    Current Node    |     Objective Bounds      |     Work
 Expl Unexpl |  Obj  Depth IntInf | Incumbent    BestBd   Gap | It/Node Time

     0     0 2769.83800    0   14 19315.0000 2769.83800  85.7%     -    0s
H    0     0                    11359.000000 2769.83800  75.6%     -    0s
H    0     0                    11195.000000 2769.83800  75.3%     -    0s
H    0     0                    11088.000000 2769.83800  75.0%     -    0s
H    0     0                    11074.000000 8084.69631  27.0%     -    0s
     0     0 8084.69631    0   26 11074.0000 8084.69631  27.0%     -    0s
H    0     0                    10916.000000 8126.71248  25.6%     -    0s
     0     0 8528.16906    0   24 10916.0000 8528.16906  21.9%     -    0s
     0     0 8539.49533    0   34 10916.0000 8539.49533  21.8%     -    0s
     0     0 8548.03675    0   29 10916.0000 8548.03675  21.7%     -    0s
H    0     0                    10896.000000 8548.03675  21.5%     -    0s
     0     0 8739.20556    0   38 10896.0000 8739.20556  19.8%     -    0s
H    0     0                    10878.000000 8745.55182  19.6%     -    0s
H    0     0                    10790.000000 8745.55182  18.9%     -    0s
H    0     0                    10758.000000 8745.55182  18.7%     -    0s
     0     0 8805.66840    0   29 10758.0000 8805.66840  18.1%     -    0s
     0     0 8815.00598    0   31 10758.0000 8815.00598  18.1%     -    0s
     0     0 8817.96662    0   29 10758.0000 8817.96662  18.0%     -    0s
     0     0 9008.34876    0   29 10758.0000 9008.34876  16.3%     -    0s
     0     0 9024.84300    0   37 10758.0000 9024.84300  16.1%     -    0s
     0     0 9027.12615    0   38 10758.0000 9027.12615  16.1%     -    0s
     0     0 9052.31904    0   24 10758.0000 9052.31904  15.9%     -    0s
H    0     0                    10732.000000 9054.01978  15.6%     -    0s
     0     0 9078.49113    0   30 10732.0000 9078.49113  15.4%     -    0s
     0     0 9083.98444    0   31 10732.0000 9083.98444  15.4%     -    0s
     0     0 9117.51030    0   34 10732.0000 9117.51030  15.0%     -    0s
     0     0 9117.89052    0   34 10732.0000 9117.89052  15.0%     -    0s
     0     2 9120.29964    0   34 10732.0000 9120.29964  15.0%     -    0s
H  106   132                    10678.000000 9232.37601  13.5%  29.2    0s
H  145   168                    10674.000000 9232.37601  13.5%  28.6    0s
 35577 11887     cutoff   37      10674.0000 10088.9494  5.48%  27.7    5s
 74477 12542     cutoff   48      10674.0000 10307.7948  3.43%  29.7   10s

Cutting planes:
  Lift-and-project: 11
  Cover: 59
  Implied bound: 27
  Dual implied bound: 38
  MIR: 190
  Flow cover: 281
  Flow path: 34
  Inf proof: 1
  Zero half: 11
  Network: 55
  Relax-and-lift: 3

Explored 111671 nodes (3117275 simplex iterations) in 13.51 seconds (17.49 work units)
Thread count was 16 (of 16 available processors)

Solution count 10: 10674 10678 10732 ... 11088

Optimal solution found (tolerance 1.00e-04)
Best objective 1.067400000000e+04, best bound 1.067400000000e+04, gap 0.0000%
